5 5
1 85 3 2 0 53 2 67 4 47
1 53 4 57 2 94 3 98 0 25
3 35 0 29 4 76 1 87 2 92
0 17 4 80 1 49 2 56 3 73
3 3 2 22 0 95 4 14 1 3
-1
0 1 3 4 5
0 4 5
0 2 4 5
0 2 5
0 1 3 4 5
-2
96 222 315 270
393 481
83 272 442
120 300
3 160 205 163

445 9
15 11 2 22 9
5 0 17 13 24
21 7 3 18 14
20 10 1 8 19
6 16 12 4 23
